\ENCODING=ISO-8859-1
\Problem name: IloCplex

Minimize
 obj: 409 x11 + 475 x21 + 101 x31 + 423 x41 + 382 x51 + 115 x61 + 477 x71
      + 324 x81 + 264 x91 + 109 x101 + 224 x111 + 86 x121 + 305 x131 + 190 x141
      + 259 x151 + 224 x161 + 89 x12 + 444 x22 + 56 x32 + 176 x42 + 260 x52
      + 345 x62 + 100 x72 + 116 x82 + 259 x92 + 192 x102 + 102 x112 + 279 x122
      + 105 x132 + 383 x142 + 440 x152 + 171 x162 + 459 x13 + 90 x23 + 495 x33
      + 195 x43 + 484 x53 + 286 x63 + 180 x73 + 405 x83 + 377 x93 + 115 x103
      + 56 x113 + 422 x123 + 200 x133 + 310 x143 + 187 x153 + 212 x163
      + 412 x14 + 165 x24 + 484 x34 + 466 x44 + 252 x54 + 272 x64 + 168 x74
      + 500 x84 + 315 x94 + 234 x104 + 204 x114 + 389 x124 + 92 x134 + 242 x144
      + 324 x154 + 239 x164 + 53 x15 + 202 x25 + 443 x35 + 293 x45 + 369 x55
      + 482 x65 + 433 x75 + 197 x85 + 68 x95 + 394 x105 + 245 x115 + 489 x125
      + 61 x135 + 188 x145 + 128 x155 + 461 x165 + 224 x16 + 91 x26 + 114 x36
      + 248 x46 + 388 x56 + 478 x66 + 267 x76 + 432 x86 + 126 x96 + 419 x106
      + 96 x116 + 465 x126 + 75 x136 + 471 x146 + 158 x156 + 60 x166 + 153 x17
      + 486 x27 + 255 x37 + 361 x47 + 284 x57 + 257 x67 + 133 x77 + 156 x87
      + 324 x97 + 234 x107 + 74 x117 + 190 x127 + 353 x137 + 242 x147
      + 318 x157 + 230 x167 + 319 x18 + 413 x28 + 140 x38 + 316 x48 + 149 x58
      + 461 x68 + 163 x78 + 138 x88 + 452 x98 + 457 x108 + 244 x118 + 385 x128
      + 227 x138 + 477 x148 + 465 x158 + 287 x168 + 214 x19 + 268 x29 + 411 x39
      + 280 x49 + 180 x59 + 261 x69 + 220 x79 + 111 x89 + 255 x99 + 311 x109
      + 103 x119 + 449 x129 + 268 x139 + 144 x149 + 75 x159 + 215 x169
      + 94 x110 + 372 x210 + 488 x310 + 186 x410 + 317 x510 + 393 x610
      + 393 x710 + 206 x810 + 460 x910 + 71 x1010 + 287 x1110 + 302 x1210
      + 404 x1310 + 220 x1410 + 230 x1510 + 349 x1610 + 369 x111 + 381 x211
      + 337 x311 + 305 x411 + 180 x511 + 323 x611 + 262 x711 + 407 x811
      + 481 x911 + 311 x1011 + 317 x1111 + 364 x1211 + 383 x1311 + 57 x1411
      + 347 x1511 + 362 x1611 + 344 x112 + 455 x212 + 155 x312 + 154 x412
      + 191 x512 + 68 x612 + 188 x712 + 448 x812 + 458 x912 + 250 x1012
      + 98 x1112 + 339 x1212 + 75 x1312 + 382 x1412 + 186 x1512 + 426 x1612
      + 465 x113 + 120 x213 + 98 x313 + 75 x413 + 386 x513 + 106 x613
      + 430 x713 + 296 x813 + 66 x913 + 237 x1013 + 473 x1113 + 231 x1213
      + 215 x1313 + 475 x1413 + 122 x1513 + 361 x1613 + 207 x114 + 410 x214
      + 112 x314 + 66 x414 + 152 x514 + 286 x614 + 368 x714 + 344 x814
      + 101 x914 + 362 x1014 + 478 x1114 + 300 x1214 + 374 x1314 + 400 x1414
      + 108 x1514 + 245 x1614 + 406 x115 + 142 x215 + 464 x315 + 368 x415
      + 207 x515 + 159 x615 + 147 x715 + 96 x815 + 387 x915 + 227 x1015
      + 132 x1115 + 64 x1215 + 431 x1315 + 235 x1415 + 70 x1515 + 372 x1615
      + 269 x116 + 374 x216 + 472 x316 + 487 x416 + 447 x516 + 450 x616
      + 473 x716 + 69 x816 + 283 x916 + 307 x1016 + 486 x1116 + 97 x1216
      + 180 x1316 + 240 x1416 + 309 x1516 + 306 x1616 + 203 x117 + 222 x217
      + 363 x317 + 123 x417 + 143 x517 + 206 x617 + 169 x717 + 102 x817
      + 95 x917 + 376 x1017 + 364 x1117 + 488 x1217 + 186 x1317 + 334 x1417
      + 370 x1517 + 76 x1617 + 495 x118 + 246 x218 + 415 x318 + 434 x418
      + 111 x518 + 381 x618 + 71 x718 + 418 x818 + 267 x918 + 389 x1018
      + 248 x1118 + 457 x1218 + 434 x1318 + 202 x1418 + 429 x1518 + 480 x1618
      + 305 x119 + 229 x219 + 237 x319 + 373 x419 + 321 x519 + 95 x619
      + 347 x719 + 163 x819 + 211 x919 + 365 x1019 + 230 x1119 + 291 x1219
      + 481 x1319 + 402 x1419 + 191 x1519 + 324 x1619 + 181 x120 + 104 x220
      + 236 x320 + 263 x420 + 357 x520 + 371 x620 + 84 x720 + 239 x820
      + 129 x920 + 464 x1020 + 263 x1120 + 234 x1220 + 85 x1320 + 381 x1420
      + 412 x1520 + 206 x1620 + x321
Subject To
 c1:  x11 + x21 + x31 + x41 + x51 + x61 + x71 + x81 + x91 + x101 + x111 + x121
      + x131 + x141 + x151 + x161 <= 125
 c2:  x12 + x22 + x32 + x42 + x52 + x62 + x72 + x82 + x92 + x102 + x112 + x122
      + x132 + x142 + x152 + x162 <= 208
 c3:  x13 + x23 + x33 + x43 + x53 + x63 + x73 + x83 + x93 + x103 + x113 + x123
      + x133 + x143 + x153 + x163 <= 101
 c4:  x14 + x24 + x34 + x44 + x54 + x64 + x74 + x84 + x94 + x104 + x114 + x124
      + x134 + x144 + x154 + x164 <= 108
 c5:  x15 + x25 + x35 + x45 + x55 + x65 + x75 + x85 + x95 + x105 + x115 + x125
      + x135 + x145 + x155 + x165 <= 223
 c6:  x16 + x26 + x36 + x46 + x56 + x66 + x76 + x86 + x96 + x106 + x116 + x126
      + x136 + x146 + x156 + x166 <= 103
 c7:  x17 + x27 + x37 + x47 + x57 + x67 + x77 + x87 + x97 + x107 + x117 + x127
      + x137 + x147 + x157 + x167 <= 142
 c8:  x18 + x28 + x38 + x48 + x58 + x68 + x78 + x88 + x98 + x108 + x118 + x128
      + x138 + x148 + x158 + x168 <= 168
 c9:  x19 + x29 + x39 + x49 + x59 + x69 + x79 + x89 + x99 + x109 + x119 + x129
      + x139 + x149 + x159 + x169 <= 103
 c10: x110 + x210 + x310 + x410 + x510 + x610 + x710 + x810 + x910 + x1010
      + x1110 + x1210 + x1310 + x1410 + x1510 + x1610 <= 196
 c11: x111 + x211 + x311 + x411 + x511 + x611 + x711 + x811 + x911 + x1011
      + x1111 + x1211 + x1311 + x1411 + x1511 + x1611 <= 185
 c12: x112 + x212 + x312 + x412 + x512 + x612 + x712 + x812 + x912 + x1012
      + x1112 + x1212 + x1312 + x1412 + x1512 + x1612 <= 143
 c13: x113 + x213 + x313 + x413 + x513 + x613 + x713 + x813 + x913 + x1013
      + x1113 + x1213 + x1313 + x1413 + x1513 + x1613 <= 172
 c14: x114 + x214 + x314 + x414 + x514 + x614 + x714 + x814 + x914 + x1014
      + x1114 + x1214 + x1314 + x1414 + x1514 + x1614 <= 158
 c15: x115 + x215 + x315 + x415 + x515 + x615 + x715 + x815 + x915 + x1015
      + x1115 + x1215 + x1315 + x1415 + x1515 + x1615 <= 123
 c16: x116 + x216 + x316 + x416 + x516 + x616 + x716 + x816 + x916 + x1016
      + x1116 + x1216 + x1316 + x1416 + x1516 + x1616 <= 184
 c17: x117 + x217 + x317 + x417 + x517 + x617 + x717 + x817 + x917 + x1017
      + x1117 + x1217 + x1317 + x1417 + x1517 + x1617 <= 188
 c18: x118 + x218 + x318 + x418 + x518 + x618 + x718 + x818 + x918 + x1018
      + x1118 + x1218 + x1318 + x1418 + x1518 + x1618 <= 167
 c19: x119 + x219 + x319 + x419 + x519 + x619 + x719 + x819 + x919 + x1019
      + x1119 + x1219 + x1319 + x1419 + x1519 + x1619 <= 119
 c20: x120 + x220 + x320 + x420 + x520 + x620 + x720 + x820 + x920 + x1020
      + x1120 + x1220 + x1320 + x1420 + x1520 + x1620 <= 2048
 c21: - x11 - x12 - x13 - x14 - x15 - x16 - x17 - x18 - x19 - x110 - x111
      - x112 - x113 - x114 - x115 - x116 - x117 - x118 - x119 - x120 <= -186
 c22: - x21 - x22 - x23 - x24 - x25 - x26 - x27 - x28 - x29 - x210 - x211
      - x212 - x213 - x214 - x215 - x216 - x217 - x218 - x219 - x220 <= -175
 c23: - x31 - x32 - x33 - x34 - x35 - x36 - x37 - x38 - x39 - x310 - x311
      - x312 - x313 - x314 - x315 - x316 - x317 - x318 - x319 - x320 <= -256
 c24: - x41 - x42 - x43 - x44 - x45 - x46 - x47 - x48 - x49 - x410 - x411
      - x412 - x413 - x414 - x415 - x416 - x417 - x418 - x419 - x420 <= -278
 c25: - x51 - x52 - x53 - x54 - x55 - x56 - x57 - x58 - x59 - x510 - x511
      - x512 - x513 - x514 - x515 - x516 - x517 - x518 - x519 - x520 <= -209
 c26: - x61 - x62 - x63 - x64 - x65 - x66 - x67 - x68 - x69 - x610 - x611
      - x612 - x613 - x614 - x615 - x616 - x617 - x618 - x619 - x620 <= -208
 c27: - x71 - x72 - x73 - x74 - x75 - x76 - x77 - x78 - x79 - x710 - x711
      - x712 - x713 - x714 - x715 - x716 - x717 - x718 - x719 - x720 <= -159
 c28: - x81 - x82 - x83 - x84 - x85 - x86 - x87 - x88 - x89 - x810 - x811
      - x812 - x813 - x814 - x815 - x816 - x817 - x818 - x819 - x820 <= -132
 c29: - x91 - x92 - x93 - x94 - x95 - x96 - x97 - x98 - x99 - x910 - x911
      - x912 - x913 - x914 - x915 - x916 - x917 - x918 - x919 - x920 <= -251
 c30: - x101 - x102 - x103 - x104 - x105 - x106 - x107 - x108 - x109 - x1010
      - x1011 - x1012 - x1013 - x1014 - x1015 - x1016 - x1017 - x1018 - x1019
      - x1020 <= -201
 c31: - x111 - x112 - x113 - x114 - x115 - x116 - x117 - x118 - x119 - x1110
      - x1111 - x1112 - x1113 - x1114 - x1115 - x1116 - x1117 - x1118 - x1119
      - x1120 <= -224
 c32: - x121 - x122 - x123 - x124 - x125 - x126 - x127 - x128 - x129 - x1210
      - x1211 - x1212 - x1213 - x1214 - x1215 - x1216 - x1217 - x1218 - x1219
      - x1220 <= -172
 c33: - x131 - x132 - x133 - x134 - x135 - x136 - x137 - x138 - x139 - x1310
      - x1311 - x1312 - x1313 - x1314 - x1315 - x1316 - x1317 - x1318 - x1319
      - x1320 <= -217
 c34: - x141 - x142 - x143 - x144 - x145 - x146 - x147 - x148 - x149 - x1410
      - x1411 - x1412 - x1413 - x1414 - x1415 - x1416 - x1417 - x1418 - x1419
      - x1420 <= -241
 c35: - x151 - x152 - x153 - x154 - x155 - x156 - x157 - x158 - x159 - x1510
      - x1511 - x1512 - x1513 - x1514 - x1515 - x1516 - x1517 - x1518 - x1519
      - x1520 <= -274
 c36: - x161 - x162 - x163 - x164 - x165 - x166 - x167 - x168 - x169 - x1610
      - x1611 - x1612 - x1613 - x1614 - x1615 - x1616 - x1617 - x1618 - x1619
      - x1620 <= -1781
Bounds
      x11 >= 0
      x21 >= 0
      x31 >= 0
      x41 >= 0
      x51 >= 0
      x61 >= 0
      x71 >= 0
      x81 >= 0
      x91 >= 0
      x101 >= 0
      x111 >= 0
      x121 >= 0
      x131 >= 0
      x141 >= 0
      x151 >= 0
      x161 >= 0
      x12 >= 0
      x22 >= 0
      x32 >= 0
      x42 >= 0
      x52 >= 0
      x62 >= 0
      x72 >= 0
      x82 >= 0
      x92 >= 0
      x102 >= 0
      x112 >= 0
      x122 >= 0
      x132 >= 0
      x142 >= 0
      x152 >= 0
      x162 >= 0
      x13 >= 0
      x23 >= 0
      x33 >= 0
      x43 >= 0
      x53 >= 0
      x63 >= 0
      x73 >= 0
      x83 >= 0
      x93 >= 0
      x103 >= 0
      x113 >= 0
      x123 >= 0
      x133 >= 0
      x143 >= 0
      x153 >= 0
      x163 >= 0
      x14 >= 0
      x24 >= 0
      x34 >= 0
      x44 >= 0
      x54 >= 0
      x64 >= 0
      x74 >= 0
      x84 >= 0
      x94 >= 0
      x104 >= 0
      x114 >= 0
      x124 >= 0
      x134 >= 0
      x144 >= 0
      x154 >= 0
      x164 >= 0
      x15 >= 0
      x25 >= 0
      x35 >= 0
      x45 >= 0
      x55 >= 0
      x65 >= 0
      x75 >= 0
      x85 >= 0
      x95 >= 0
      x105 >= 0
      x115 >= 0
      x125 >= 0
      x135 >= 0
      x145 >= 0
      x155 >= 0
      x165 >= 0
      x16 >= 0
      x26 >= 0
      x36 >= 0
      x46 >= 0
      x56 >= 0
      x66 >= 0
      x76 >= 0
      x86 >= 0
      x96 >= 0
      x106 >= 0
      x116 >= 0
      x126 >= 0
      x136 >= 0
      x146 >= 0
      x156 >= 0
      x166 >= 0
      x17 >= 0
      x27 >= 0
      x37 >= 0
      x47 >= 0
      x57 >= 0
      x67 >= 0
      x77 >= 0
      x87 >= 0
      x97 >= 0
      x107 >= 0
      x117 >= 0
      x127 >= 0
      x137 >= 0
      x147 >= 0
      x157 >= 0
      x167 >= 0
      x18 >= 0
      x28 >= 0
      x38 >= 0
      x48 >= 0
      x58 >= 0
      x68 >= 0
      x78 >= 0
      x88 >= 0
      x98 >= 0
      x108 >= 0
      x118 >= 0
      x128 >= 0
      x138 >= 0
      x148 >= 0
      x158 >= 0
      x168 >= 0
      x19 >= 0
      x29 >= 0
      x39 >= 0
      x49 >= 0
      x59 >= 0
      x69 >= 0
      x79 >= 0
      x89 >= 0
      x99 >= 0
      x109 >= 0
      x119 >= 0
      x129 >= 0
      x139 >= 0
      x149 >= 0
      x159 >= 0
      x169 >= 0
      x110 >= 0
      x210 >= 0
      x310 >= 0
      x410 >= 0
      x510 >= 0
      x610 >= 0
      x710 >= 0
      x810 >= 0
      x910 >= 0
      x1010 >= 0
      x1110 >= 0
      x1210 >= 0
      x1310 >= 0
      x1410 >= 0
      x1510 >= 0
      x1610 >= 0
      x111 >= 0
      x211 >= 0
      x311 >= 0
      x411 >= 0
      x511 >= 0
      x611 >= 0
      x711 >= 0
      x811 >= 0
      x911 >= 0
      x1011 >= 0
      x1111 >= 0
      x1211 >= 0
      x1311 >= 0
      x1411 >= 0
      x1511 >= 0
      x1611 >= 0
      x112 >= 0
      x212 >= 0
      x312 >= 0
      x412 >= 0
      x512 >= 0
      x612 >= 0
      x712 >= 0
      x812 >= 0
      x912 >= 0
      x1012 >= 0
      x1112 >= 0
      x1212 >= 0
      x1312 >= 0
      x1412 >= 0
      x1512 >= 0
      x1612 >= 0
      x113 >= 0
      x213 >= 0
      x313 >= 0
      x413 >= 0
      x513 >= 0
      x613 >= 0
      x713 >= 0
      x813 >= 0
      x913 >= 0
      x1013 >= 0
      x1113 >= 0
      x1213 >= 0
      x1313 >= 0
      x1413 >= 0
      x1513 >= 0
      x1613 >= 0
      x114 >= 0
      x214 >= 0
      x314 >= 0
      x414 >= 0
      x514 >= 0
      x614 >= 0
      x714 >= 0
      x814 >= 0
      x914 >= 0
      x1014 >= 0
      x1114 >= 0
      x1214 >= 0
      x1314 >= 0
      x1414 >= 0
      x1514 >= 0
      x1614 >= 0
      x115 >= 0
      x215 >= 0
      x315 >= 0
      x415 >= 0
      x515 >= 0
      x615 >= 0
      x715 >= 0
      x815 >= 0
      x915 >= 0
      x1015 >= 0
      x1115 >= 0
      x1215 >= 0
      x1315 >= 0
      x1415 >= 0
      x1515 >= 0
      x1615 >= 0
      x116 >= 0
      x216 >= 0
      x316 >= 0
      x416 >= 0
      x516 >= 0
      x616 >= 0
      x716 >= 0
      x816 >= 0
      x916 >= 0
      x1016 >= 0
      x1116 >= 0
      x1216 >= 0
      x1316 >= 0
      x1416 >= 0
      x1516 >= 0
      x1616 >= 0
      x117 >= 0
      x217 >= 0
      x317 >= 0
      x417 >= 0
      x517 >= 0
      x617 >= 0
      x717 >= 0
      x817 >= 0
      x917 >= 0
      x1017 >= 0
      x1117 >= 0
      x1217 >= 0
      x1317 >= 0
      x1417 >= 0
      x1517 >= 0
      x1617 >= 0
      x118 >= 0
      x218 >= 0
      x318 >= 0
      x418 >= 0
      x518 >= 0
      x618 >= 0
      x718 >= 0
      x818 >= 0
      x918 >= 0
      x1018 >= 0
      x1118 >= 0
      x1218 >= 0
      x1318 >= 0
      x1418 >= 0
      x1518 >= 0
      x1618 >= 0
      x119 >= 0
      x219 >= 0
      x319 >= 0
      x419 >= 0
      x519 >= 0
      x619 >= 0
      x719 >= 0
      x819 >= 0
      x919 >= 0
      x1019 >= 0
      x1119 >= 0
      x1219 >= 0
      x1319 >= 0
      x1419 >= 0
      x1519 >= 0
      x1619 >= 0
      x120 >= 0
      x220 >= 0
      x320 >= 0
      x420 >= 0
      x520 >= 0
      x620 >= 0
      x720 >= 0
      x820 >= 0
      x920 >= 0
      x1020 >= 0
      x1120 >= 0
      x1220 >= 0
      x1320 >= 0
      x1420 >= 0
      x1520 >= 0
      x1620 >= 0
      x321 = 0
Generals
 x11  x21  x31  x41  x51  x61  x71  x81  x91  x101  x111  x121  x131  x141 
 x151  x161  x12  x22  x32  x42  x52  x62  x72  x82  x92  x102  x112  x122 
 x132  x142  x152  x162  x13  x23  x33  x43  x53  x63  x73  x83  x93  x103 
 x113  x123  x133  x143  x153  x163  x14  x24  x34  x44  x54  x64  x74  x84 
 x94  x104  x114  x124  x134  x144  x154  x164  x15  x25  x35  x45  x55  x65 
 x75  x85  x95  x105  x115  x125  x135  x145  x155  x165  x16  x26  x36  x46 
 x56  x66  x76  x86  x96  x106  x116  x126  x136  x146  x156  x166  x17  x27 
 x37  x47  x57  x67  x77  x87  x97  x107  x117  x127  x137  x147  x157  x167 
 x18  x28  x38  x48  x58  x68  x78  x88  x98  x108  x118  x128  x138  x148 
 x158  x168  x19  x29  x39  x49  x59  x69  x79  x89  x99  x109  x119  x129 
 x139  x149  x159  x169  x110  x210  x310  x410  x510  x610  x710  x810  x910 
 x1010  x1110  x1210  x1310  x1410  x1510  x1610  x111  x211  x311  x411  x511 
 x611  x711  x811  x911  x1011  x1111  x1211  x1311  x1411  x1511  x1611  x112 
 x212  x312  x412  x512  x612  x712  x812  x912  x1012  x1112  x1212  x1312 
 x1412  x1512  x1612  x113  x213  x313  x413  x513  x613  x713  x813  x913 
 x1013  x1113  x1213  x1313  x1413  x1513  x1613  x114  x214  x314  x414  x514 
 x614  x714  x814  x914  x1014  x1114  x1214  x1314  x1414  x1514  x1614  x115 
 x215  x315  x415  x515  x615  x715  x815  x915  x1015  x1115  x1215  x1315 
 x1415  x1515  x1615  x116  x216  x316  x416  x516  x616  x716  x816  x916 
 x1016  x1116  x1216  x1316  x1416  x1516  x1616  x117  x217  x317  x417  x517 
 x617  x717  x817  x917  x1017  x1117  x1217  x1317  x1417  x1517  x1617  x118 
 x218  x318  x418  x518  x618  x718  x818  x918  x1018  x1118  x1218  x1318 
 x1418  x1518  x1618  x119  x219  x319  x419  x519  x619  x719  x819  x919 
 x1019  x1119  x1219  x1319  x1419  x1519  x1619  x120  x220  x320  x420  x520 
 x620  x720  x820  x920  x1020  x1120  x1220  x1320  x1420  x1520  x1620 
End
